1 1412 7
2 1165 7
5 1111 7
6 1071 7
13 1066 7
21 1039 7
105 1020 7
352 997 7



1 1417 7
2 1100 7
4 1099 7
7 1065 7
44 1034 7
220 1029 7
480 1028 7
761 1019 7



1 1395 7
2 1179 7
4 1154 7
5 1128 7
6 1127 7
7 1078 7
28 1067 7
30 1061 7
53 1055 7
64 1043 7
173 1041 7
351 1020 7



1 1335 7
2 1164 7
3 1118 7
7 1112 7
8 1106 7
18 1104 7
22 1103 7
23 1076 7
30 1069 7
66 1052 7
73 1040 7
377 1026 7
382 1004 7



1 1349 7
2 1152 7
3 1079 7
8 1058 7
66 1056 7
145 1037 7
329 1020 7
357 1012 7



